NAME : pr76
COMMENT : 76-city problem (Padberg/Rinaldi)
TYPE : TSP
DIMENSION : 10
EDGE_WEIGHT_TYPE : EUC_2D
NODE_COORD_SECTION
1 3600 2300
2 3100 3300
3 4700 5750
4 5400 5750
5 5608 7103
6 4493 7102
7 3600 6950
8 3100 7250
9 4700 8450
10 5400 8450
EOF
